NAME          
ROWS
 N  OBJ
 L  c1
 L  c2
 L  c3
COLUMNS
    MARKER    'MARKER'                 'INTORG'
    x[1]      c1        860
    x[1]      c2        535
    x[1]      c3        802
    x[1]      OBJ       -499
    x[2]      c1        406
    x[2]      c2        116
    x[2]      c3        515
    x[2]      OBJ       -765
    x[3]      c1        262
    x[3]      c2        951
    x[3]      c3        149
    x[3]      OBJ       -168
    x[4]      c1        846
    x[4]      c2        805
    x[4]      c3        233
    x[4]      OBJ       -667
    x[5]      c1        688
    x[5]      c2        594
    x[5]      c3        425
    x[5]      OBJ       -310
    x[6]      c1        798
    x[6]      c2        409
    x[6]      c3        40
    x[6]      OBJ       -523
    x[7]      c1        531
    x[7]      c2        662
    x[7]      c3        392
    x[7]      OBJ       -597
    x[8]      c1        79
    x[8]      c2        329
    x[8]      c3        294
    x[8]      OBJ       -194
    x[9]      c1        502
    x[9]      c2        682
    x[9]      c3        424
    x[9]      OBJ       -458
    x[10]     c1        154
    x[10]     c2        200
    x[10]     c3        147
    x[10]     OBJ       -250
    x[11]     c1        380
    x[11]     c2        922
    x[11]     c3        790
    x[11]     OBJ       -478
    x[12]     c1        173
    x[12]     c2        912
    x[12]     c3        28
    x[12]     OBJ       -708
    x[13]     c1        245
    x[13]     c2        343
    x[13]     c3        756
    x[13]     OBJ       -117
    x[14]     c1        728
    x[14]     c2        564
    x[14]     c3        585
    x[14]     OBJ       -164
    x[15]     c1        78
    x[15]     c2        671
    x[15]     c3        793
    x[15]     OBJ       -546
RHS
    rhs       c1        3365
    rhs       c2        4348
    rhs       c3        3186
RANGES
BOUNDS
 LO bounds    x[1]      0
 PL bounds    x[1]
 LO bounds    x[2]      0
 PL bounds    x[2]
 LO bounds    x[3]      0
 PL bounds    x[3]
 LO bounds    x[4]      0
 PL bounds    x[4]
 LO bounds    x[5]      0
 PL bounds    x[5]
 LO bounds    x[6]      0
 PL bounds    x[6]
 LO bounds    x[7]      0
 PL bounds    x[7]
 LO bounds    x[8]      0
 PL bounds    x[8]
 LO bounds    x[9]      0
 PL bounds    x[9]
 LO bounds    x[10]     0
 PL bounds    x[10]
 LO bounds    x[11]     0
 PL bounds    x[11]
 LO bounds    x[12]     0
 PL bounds    x[12]
 LO bounds    x[13]     0
 PL bounds    x[13]
 LO bounds    x[14]     0
 PL bounds    x[14]
 LO bounds    x[15]     0
 PL bounds    x[15]
ENDATA
